"Generated by gensdpafile() 2016/07/05 15:30:59"
"Input from YALMIP" 
115
2
-182,34
              0,              0,0.0897938924849249,              0,              0,              0,              0,              0,              0,              0,              0,              0,              0,              0,              0,              0,              0,              0,              0,              0,              0,              0,              0,              0,              0,              0,0.0897938924849249,              0,              0,              0,              0,              0,              0,              0,              0,              0,              0,              0,              0,              0,              0,              0,              0,              0,              0,              0,              0,              0,              0,              0,              0,              0,              0,              0,              0,              0,              0,              0,              0,              0,              0,              0,              0,              0,              0,              0,              0,              0,              0,              0,              0,              0,              0,              0,              0,              0,              0,              0,              0,              0,              0,              0,              0,              0,              0,              0,              0,              0,              0,              0,              0,              0,              0,              0,              0,              0,              0,              0,              0,              0,              0,              0,              0,              0,              0,              0,              0,              0,              0,              0,              0,              0,              0,              0,              0
0,1,1,1,              1
0,1,92,92,             -1
1,1,1,1,-0.0897938924849249
1,1,92,92,0.0897938924849249
1,2,1,1,             -1
2,1,2,2,0.0897938924849249
2,1,3,3,0.134690838727387
2,1,93,93,-0.0897938924849249
2,1,94,94,-0.134690838727387
2,2,1,2,             -1
3,1,5,5,0.0897938924849249
3,1,6,6,0.269381677454775
3,1,96,96,-0.0897938924849249
3,1,97,97,-0.269381677454775
3,2,1,4,             -1
3,2,2,2,             -1
4,1,9,9,0.0897938924849249
4,1,10,10,0.404072516182162
4,1,100,100,-0.0897938924849249
4,1,101,101,-0.404072516182162
4,2,1,7,             -1
4,2,2,4,             -1
5,1,14,14,0.0897938924849249
5,1,15,15,0.53876335490955
5,1,105,105,-0.0897938924849249
5,1,106,106,-0.53876335490955
5,2,1,11,             -1
5,2,2,7,             -1
5,2,4,4,             -1
6,1,20,20,0.0897938924849249
6,1,21,21,0.673454193636937
6,1,111,111,-0.0897938924849249
6,1,112,112,-0.673454193636937
6,2,1,16,             -1
6,2,2,11,             -1
6,2,4,7,             -1
7,1,27,27,0.0897938924849249
7,1,28,28,0.808145032364324
7,1,118,118,-0.0897938924849249
7,1,119,119,-0.808145032364324
7,2,1,22,             -1
7,2,2,16,             -1
7,2,4,11,             -1
7,2,7,7,             -1
8,1,35,35,0.0897938924849249
8,1,36,36,0.942835871091712
8,1,126,126,-0.0897938924849249
8,1,127,127,-0.942835871091712
8,2,2,22,             -1
8,2,4,16,             -1
8,2,7,11,             -1
9,1,44,44,0.0897938924849249
9,1,45,45,1.0775267098191
9,1,135,135,-0.0897938924849249
9,1,136,136,-1.0775267098191
9,2,4,22,             -1
9,2,7,16,             -1
9,2,11,11,             -1
10,1,54,54,0.0897938924849249
10,1,55,55,1.21221754854649
10,1,145,145,-0.0897938924849249
10,1,146,146,-1.21221754854649
10,2,7,22,             -1
10,2,11,16,             -1
11,1,65,65,0.0897938924849249
11,1,66,66,1.34690838727387
11,1,156,156,-0.0897938924849249
11,1,157,157,-1.34690838727387
11,2,11,22,             -1
11,2,16,16,             -1
12,1,77,77,0.0897938924849249
12,1,78,78,1.48159922600126
12,1,168,168,-0.0897938924849249
12,1,169,169,-1.48159922600126
12,2,16,22,             -1
13,1,90,90,0.0897938924849249
13,1,91,91,1.61629006472865
13,1,181,181,-0.0897938924849249
13,1,182,182,-1.61629006472865
13,2,22,22,             -1
14,1,3,3,-0.0897938924849249
14,1,94,94,0.0897938924849249
14,2,1,3,             -1
15,1,4,4,0.17958778496985
15,1,5,5,0.134690838727387
15,1,6,6,-0.17958778496985
15,1,95,95,-0.17958778496985
15,1,96,96,-0.134690838727387
15,1,97,97,0.17958778496985
15,2,1,5,             -1
15,2,2,3,             -1
16,1,8,8,0.17958778496985
16,1,9,9,0.269381677454775
16,1,10,10,-0.269381677454775
16,1,99,99,-0.17958778496985
16,1,100,100,-0.269381677454775
16,1,101,101,0.269381677454775
16,2,1,8,             -1
16,2,2,5,             -1
16,2,3,4,             -1
17,1,13,13,0.17958778496985
17,1,14,14,0.404072516182162
17,1,15,15,-0.3591755699397
17,1,104,104,-0.17958778496985
17,1,105,105,-0.404072516182162
17,1,106,106,0.3591755699397
17,2,1,12,             -1
17,2,2,8,             -1
17,2,3,7,             -1
17,2,4,5,             -1
18,1,19,19,0.17958778496985
18,1,20,20,0.53876335490955
18,1,21,21,-0.448969462424625
18,1,110,110,-0.17958778496985
18,1,111,111,-0.53876335490955
18,1,112,112,0.448969462424625
18,2,1,17,             -1
18,2,2,12,             -1
18,2,3,11,             -1
18,2,4,8,             -1
18,2,5,7,             -1
19,1,26,26,0.17958778496985
19,1,27,27,0.673454193636937
19,1,28,28,-0.53876335490955
19,1,117,117,-0.17958778496985
19,1,118,118,-0.673454193636937
19,1,119,119,0.53876335490955
19,2,1,23,             -1
19,2,2,17,             -1
19,2,3,16,             -1
19,2,4,12,             -1
19,2,5,11,             -1
19,2,7,8,             -1
20,1,34,34,0.17958778496985
20,1,35,35,0.808145032364324
20,1,36,36,-0.628557247394474
20,1,125,125,-0.17958778496985
20,1,126,126,-0.808145032364324
20,1,127,127,0.628557247394474
20,2,1,29,             -1
20,2,2,23,             -1
20,2,3,22,             -1
20,2,4,17,             -1
20,2,5,16,             -1
20,2,7,12,             -1
20,2,8,11,             -1
21,1,43,43,0.17958778496985
21,1,44,44,0.942835871091712
21,1,45,45,-0.718351139879399
21,1,134,134,-0.17958778496985
21,1,135,135,-0.942835871091712
21,1,136,136,0.718351139879399
21,2,2,29,             -1
21,2,4,23,             -1
21,2,5,22,             -1
21,2,7,17,             -1
21,2,8,16,             -1
21,2,11,12,             -1
22,1,53,53,0.17958778496985
22,1,54,54,1.0775267098191
22,1,55,55,-0.808145032364324
22,1,144,144,-0.17958778496985
22,1,145,145,-1.0775267098191
22,1,146,146,0.808145032364324
22,2,4,29,             -1
22,2,7,23,             -1
22,2,8,22,             -1
22,2,11,17,             -1
22,2,12,16,             -1
23,1,64,64,0.17958778496985
23,1,65,65,1.21221754854649
23,1,66,66,-0.897938924849249
23,1,155,155,-0.17958778496985
23,1,156,156,-1.21221754854649
23,1,157,157,0.897938924849249
23,2,7,29,             -1
23,2,11,23,             -1
23,2,12,22,             -1
23,2,16,17,             -1
24,1,76,76,0.17958778496985
24,1,77,77,1.34690838727387
24,1,78,78,-0.987732817334174
24,1,167,167,-0.17958778496985
24,1,168,168,-1.34690838727387
24,1,169,169,0.987732817334174
24,2,11,29,             -1
24,2,16,23,             -1
24,2,17,22,             -1
25,1,89,89,0.17958778496985
25,1,90,90,1.48159922600126
25,1,91,91,-1.0775267098191
25,1,180,180,-0.17958778496985
25,1,181,181,-1.48159922600126
25,1,182,182,1.0775267098191
25,2,16,29,             -1
25,2,22,23,             -1
26,2,22,29,             -1
27,1,5,5,-0.0897938924849249
27,1,96,96,0.0897938924849249
27,2,1,6,             -1
27,2,3,3,             -1
28,1,3,3,-0.134690838727387
28,1,7,7,0.269381677454775
28,1,8,8,0.134690838727387
28,1,9,9,-0.17958778496985
28,1,94,94,0.134690838727387
28,1,98,98,-0.269381677454775
28,1,99,99,-0.134690838727387
28,1,100,100,0.17958778496985
28,2,1,9,             -1
28,2,2,6,             -1
28,2,3,5,             -1
29,1,6,6,-0.269381677454775
29,1,12,12,0.269381677454775
29,1,13,13,0.269381677454775
29,1,14,14,-0.269381677454775
29,1,97,97,0.269381677454775
29,1,103,103,-0.269381677454775
29,1,104,104,-0.269381677454775
29,1,105,105,0.269381677454775
29,2,1,13,             -1
29,2,2,9,             -1
29,2,3,8,             -1
29,2,4,6,             -1
29,2,5,5,             -1
30,1,10,10,-0.404072516182162
30,1,18,18,0.269381677454775
30,1,19,19,0.404072516182162
30,1,20,20,-0.3591755699397
30,1,101,101,0.404072516182162
30,1,109,109,-0.269381677454775
30,1,110,110,-0.404072516182162
30,1,111,111,0.3591755699397
30,2,1,18,             -1
30,2,2,13,             -1
30,2,3,12,             -1
30,2,4,9,             -1
30,2,5,8,             -1
30,2,6,7,             -1
31,1,15,15,-0.53876335490955
31,1,25,25,0.269381677454775
31,1,26,26,0.53876335490955
31,1,27,27,-0.448969462424625
31,1,106,106,0.53876335490955
31,1,116,116,-0.269381677454775
31,1,117,117,-0.53876335490955
31,1,118,118,0.448969462424625
31,2,1,24,             -1
31,2,2,18,             -1
31,2,3,17,             -1
31,2,4,13,             -1
31,2,5,12,             -1
31,2,6,11,             -1
31,2,7,9,             -1
31,2,8,8,             -1
32,1,21,21,-0.673454193636937
32,1,33,33,0.269381677454775
32,1,34,34,0.673454193636937
32,1,35,35,-0.53876335490955
32,1,112,112,0.673454193636937
32,1,124,124,-0.269381677454775
32,1,125,125,-0.673454193636937
32,1,126,126,0.53876335490955
32,2,1,30,             -1
32,2,2,24,             -1
32,2,3,23,             -1
32,2,4,18,             -1
32,2,5,17,             -1
32,2,6,16,             -1
32,2,7,13,             -1
32,2,8,12,             -1
32,2,9,11,             -1
33,1,28,28,-0.808145032364324
33,1,42,42,0.269381677454775
33,1,43,43,0.808145032364324
33,1,44,44,-0.628557247394474
33,1,119,119,0.808145032364324
33,1,133,133,-0.269381677454775
33,1,134,134,-0.808145032364324
33,1,135,135,0.628557247394474
33,2,2,30,             -1
33,2,3,29,             -1
33,2,4,24,             -1
33,2,5,23,             -1
33,2,6,22,             -1
33,2,7,18,             -1
33,2,8,17,             -1
33,2,9,16,             -1
33,2,11,13,             -1
33,2,12,12,             -1
34,1,36,36,-0.942835871091712
34,1,52,52,0.269381677454775
34,1,53,53,0.942835871091712
34,1,54,54,-0.718351139879399
34,1,127,127,0.942835871091712
34,1,143,143,-0.269381677454775
34,1,144,144,-0.942835871091712
34,1,145,145,0.718351139879399
34,2,4,30,             -1
34,2,5,29,             -1
34,2,7,24,             -1
34,2,8,23,             -1
34,2,9,22,             -1
34,2,11,18,             -1
34,2,12,17,             -1
34,2,13,16,             -1
35,1,45,45,-1.0775267098191
35,1,63,63,0.269381677454775
35,1,64,64,1.0775267098191
35,1,65,65,-0.808145032364324
35,1,136,136,1.0775267098191
35,1,154,154,-0.269381677454775
35,1,155,155,-1.0775267098191
35,1,156,156,0.808145032364324
35,2,7,30,             -1
35,2,8,29,             -1
35,2,11,24,             -1
35,2,12,23,             -1
35,2,13,22,             -1
35,2,16,18,             -1
35,2,17,17,             -1
36,1,55,55,-1.21221754854649
36,1,75,75,0.269381677454775
36,1,76,76,1.21221754854649
36,1,77,77,-0.897938924849249
36,1,146,146,1.21221754854649
36,1,166,166,-0.269381677454775
36,1,167,167,-1.21221754854649
36,1,168,168,0.897938924849249
36,2,11,30,             -1
36,2,12,29,             -1
36,2,16,24,             -1
36,2,17,23,             -1
36,2,18,22,             -1
37,1,66,66,-1.34690838727387
37,1,88,88,0.269381677454775
37,1,89,89,1.34690838727387
37,1,90,90,-0.987732817334174
37,1,157,157,1.34690838727387
37,1,179,179,-0.269381677454775
37,1,180,180,-1.34690838727387
37,1,181,181,0.987732817334174
37,2,16,30,             -1
37,2,17,29,             -1
37,2,22,24,             -1
37,2,23,23,             -1
38,1,78,78,-1.48159922600126
38,1,169,169,1.48159922600126
38,2,22,30,             -1
38,2,23,29,             -1
39,1,91,91,-1.61629006472865
39,1,182,182,1.61629006472865
39,2,29,29,             -1
40,1,8,8,-0.0897938924849249
40,1,99,99,0.0897938924849249
40,2,1,10,             -1
40,2,3,6,             -1
41,1,5,5,-0.134690838727387
41,1,11,11,0.3591755699397
41,1,12,12,0.134690838727387
41,1,13,13,-0.17958778496985
41,1,96,96,0.134690838727387
41,1,102,102,-0.3591755699397
41,1,103,103,-0.134690838727387
41,1,104,104,0.17958778496985
41,2,1,14,             -1
41,2,2,10,             -1
41,2,3,9,             -1
41,2,5,6,             -1
42,1,9,9,-0.269381677454775
42,1,17,17,0.3591755699397
42,1,18,18,0.269381677454775
42,1,19,19,-0.269381677454775
42,1,100,100,0.269381677454775
42,1,108,108,-0.3591755699397
42,1,109,109,-0.269381677454775
42,1,110,110,0.269381677454775
42,2,1,19,             -1
42,2,2,14,             -1
42,2,3,13,             -1
42,2,4,10,             -1
42,2,5,9,             -1
42,2,6,8,             -1
43,1,14,14,-0.404072516182162
43,1,24,24,0.3591755699397
43,1,25,25,0.404072516182162
43,1,26,26,-0.3591755699397
43,1,105,105,0.404072516182162
43,1,115,115,-0.3591755699397
43,1,116,116,-0.404072516182162
43,1,117,117,0.3591755699397
43,2,1,25,             -1
43,2,2,19,             -1
43,2,3,18,             -1
43,2,4,14,             -1
43,2,5,13,             -1
43,2,6,12,             -1
43,2,7,10,             -1
43,2,8,9,             -1
44,1,20,20,-0.53876335490955
44,1,32,32,0.3591755699397
44,1,33,33,0.53876335490955
44,1,34,34,-0.448969462424625
44,1,111,111,0.53876335490955
44,1,123,123,-0.3591755699397
44,1,124,124,-0.53876335490955
44,1,125,125,0.448969462424625
44,2,1,31,             -1
44,2,2,25,             -1
44,2,3,24,             -1
44,2,4,19,             -1
44,2,5,18,             -1
44,2,6,17,             -1
44,2,7,14,             -1
44,2,8,13,             -1
44,2,9,12,             -1
44,2,10,11,             -1
45,1,27,27,-0.673454193636937
45,1,41,41,0.3591755699397
45,1,42,42,0.673454193636937
45,1,43,43,-0.53876335490955
45,1,118,118,0.673454193636937
45,1,132,132,-0.3591755699397
45,1,133,133,-0.673454193636937
45,1,134,134,0.53876335490955
45,2,2,31,             -1
45,2,3,30,             -1
45,2,4,25,             -1
45,2,5,24,             -1
45,2,6,23,             -1
45,2,7,19,             -1
45,2,8,18,             -1
45,2,9,17,             -1
45,2,10,16,             -1
45,2,11,14,             -1
45,2,12,13,             -1
46,1,35,35,-0.808145032364324
46,1,51,51,0.3591755699397
46,1,52,52,0.808145032364324
46,1,53,53,-0.628557247394474
46,1,126,126,0.808145032364324
46,1,142,142,-0.3591755699397
46,1,143,143,-0.808145032364324
46,1,144,144,0.628557247394474
46,2,4,31,             -1
46,2,5,30,             -1
46,2,6,29,             -1
46,2,7,25,             -1
46,2,8,24,             -1
46,2,9,23,             -1
46,2,10,22,             -1
46,2,11,19,             -1
46,2,12,18,             -1
46,2,13,17,             -1
46,2,14,16,             -1
47,1,44,44,-0.942835871091712
47,1,62,62,0.3591755699397
47,1,63,63,0.942835871091712
47,1,64,64,-0.718351139879399
47,1,135,135,0.942835871091712
47,1,153,153,-0.3591755699397
47,1,154,154,-0.942835871091712
47,1,155,155,0.718351139879399
47,2,7,31,             -1
47,2,8,30,             -1
47,2,9,29,             -1
47,2,11,25,             -1
47,2,12,24,             -1
47,2,13,23,             -1
47,2,14,22,             -1
47,2,16,19,             -1
47,2,17,18,             -1
48,1,54,54,-1.0775267098191
48,1,74,74,0.3591755699397
48,1,75,75,1.0775267098191
48,1,76,76,-0.808145032364324
48,1,145,145,1.0775267098191
48,1,165,165,-0.3591755699397
48,1,166,166,-1.0775267098191
48,1,167,167,0.808145032364324
48,2,11,31,             -1
48,2,12,30,             -1
48,2,13,29,             -1
48,2,16,25,             -1
48,2,17,24,             -1
48,2,18,23,             -1
48,2,19,22,             -1
49,1,65,65,-1.21221754854649
49,1,87,87,0.3591755699397
49,1,88,88,1.21221754854649
49,1,89,89,-0.897938924849249
49,1,156,156,1.21221754854649
49,1,178,178,-0.3591755699397
49,1,179,179,-1.21221754854649
49,1,180,180,0.897938924849249
49,2,16,31,             -1
49,2,17,30,             -1
49,2,18,29,             -1
49,2,22,25,             -1
49,2,23,24,             -1
50,1,77,77,-1.34690838727387
50,1,168,168,1.34690838727387
50,2,22,31,             -1
50,2,23,30,             -1
50,2,24,29,             -1
51,1,90,90,-1.48159922600126
51,1,181,181,1.48159922600126
51,2,29,30,             -1
52,1,12,12,-0.0897938924849249
52,1,103,103,0.0897938924849249
52,2,1,15,             -1
52,2,3,10,             -1
52,2,6,6,             -1
53,1,8,8,-0.134690838727387
53,1,16,16,0.448969462424625
53,1,17,17,0.134690838727387
53,1,18,18,-0.17958778496985
53,1,99,99,0.134690838727387
53,1,107,107,-0.448969462424625
53,1,108,108,-0.134690838727387
53,1,109,109,0.17958778496985
53,2,1,20,             -1
53,2,2,15,             -1
53,2,3,14,             -1
53,2,5,10,             -1
53,2,6,9,             -1
54,1,13,13,-0.269381677454775
54,1,23,23,0.448969462424625
54,1,24,24,0.269381677454775
54,1,25,25,-0.269381677454775
54,1,104,104,0.269381677454775
54,1,114,114,-0.448969462424625
54,1,115,115,-0.269381677454775
54,1,116,116,0.269381677454775
54,2,1,26,             -1
54,2,2,20,             -1
54,2,3,19,             -1
54,2,4,15,             -1
54,2,5,14,             -1
54,2,6,13,             -1
54,2,8,10,             -1
54,2,9,9,             -1
55,1,19,19,-0.404072516182162
55,1,31,31,0.448969462424625
55,1,32,32,0.404072516182162
55,1,33,33,-0.3591755699397
55,1,110,110,0.404072516182162
55,1,122,122,-0.448969462424625
55,1,123,123,-0.404072516182162
55,1,124,124,0.3591755699397
55,2,1,32,             -1
55,2,2,26,             -1
55,2,3,25,             -1
55,2,4,20,             -1
55,2,5,19,             -1
55,2,6,18,             -1
55,2,7,15,             -1
55,2,8,14,             -1
55,2,9,13,             -1
55,2,10,12,             -1
56,1,26,26,-0.53876335490955
56,1,40,40,0.448969462424625
56,1,41,41,0.53876335490955
56,1,42,42,-0.448969462424625
56,1,117,117,0.53876335490955
56,1,131,131,-0.448969462424625
56,1,132,132,-0.53876335490955
56,1,133,133,0.448969462424625
56,2,2,32,             -1
56,2,3,31,             -1
56,2,4,26,             -1
56,2,5,25,             -1
56,2,6,24,             -1
56,2,7,20,             -1
56,2,8,19,             -1
56,2,9,18,             -1
56,2,10,17,             -1
56,2,11,15,             -1
56,2,12,14,             -1
56,2,13,13,             -1
57,1,34,34,-0.673454193636937
57,1,50,50,0.448969462424625
57,1,51,51,0.673454193636937
57,1,52,52,-0.53876335490955
57,1,125,125,0.673454193636937
57,1,141,141,-0.448969462424625
57,1,142,142,-0.673454193636937
57,1,143,143,0.53876335490955
57,2,4,32,             -1
57,2,5,31,             -1
57,2,6,30,             -1
57,2,7,26,             -1
57,2,8,25,             -1
57,2,9,24,             -1
57,2,10,23,             -1
57,2,11,20,             -1
57,2,12,19,             -1
57,2,13,18,             -1
57,2,14,17,             -1
57,2,15,16,             -1
58,1,43,43,-0.808145032364324
58,1,61,61,0.448969462424625
58,1,62,62,0.808145032364324
58,1,63,63,-0.628557247394474
58,1,134,134,0.808145032364324
58,1,152,152,-0.448969462424625
58,1,153,153,-0.808145032364324
58,1,154,154,0.628557247394474
58,2,7,32,             -1
58,2,8,31,             -1
58,2,9,30,             -1
58,2,10,29,             -1
58,2,11,26,             -1
58,2,12,25,             -1
58,2,13,24,             -1
58,2,14,23,             -1
58,2,15,22,             -1
58,2,16,20,             -1
58,2,17,19,             -1
58,2,18,18,             -1
59,1,53,53,-0.942835871091712
59,1,73,73,0.448969462424625
59,1,74,74,0.942835871091712
59,1,75,75,-0.718351139879399
59,1,144,144,0.942835871091712
59,1,164,164,-0.448969462424625
59,1,165,165,-0.942835871091712
59,1,166,166,0.718351139879399
59,2,11,32,             -1
59,2,12,31,             -1
59,2,13,30,             -1
59,2,14,29,             -1
59,2,16,26,             -1
59,2,17,25,             -1
59,2,18,24,             -1
59,2,19,23,             -1
59,2,20,22,             -1
60,1,64,64,-1.0775267098191
60,1,86,86,0.448969462424625
60,1,87,87,1.0775267098191
60,1,88,88,-0.808145032364324
60,1,155,155,1.0775267098191
60,1,177,177,-0.448969462424625
60,1,178,178,-1.0775267098191
60,1,179,179,0.808145032364324
60,2,16,32,             -1
60,2,17,31,             -1
60,2,18,30,             -1
60,2,19,29,             -1
60,2,22,26,             -1
60,2,23,25,             -1
60,2,24,24,             -1
61,1,76,76,-1.21221754854649
61,1,167,167,1.21221754854649
61,2,22,32,             -1
61,2,23,31,             -1
61,2,24,30,             -1
61,2,25,29,             -1
62,1,89,89,-1.34690838727387
62,1,180,180,1.34690838727387
62,2,29,31,             -1
62,2,30,30,             -1
63,1,17,17,-0.0897938924849249
63,1,108,108,0.0897938924849249
63,2,1,21,             -1
63,2,3,15,             -1
63,2,6,10,             -1
64,1,12,12,-0.134690838727387
64,1,22,22,0.53876335490955
64,1,23,23,0.134690838727387
64,1,24,24,-0.17958778496985
64,1,103,103,0.134690838727387
64,1,113,113,-0.53876335490955
64,1,114,114,-0.134690838727387
64,1,115,115,0.17958778496985
64,2,1,27,             -1
64,2,2,21,             -1
64,2,3,20,             -1
64,2,5,15,             -1
64,2,6,14,             -1
64,2,9,10,             -1
65,1,18,18,-0.269381677454775
65,1,30,30,0.53876335490955
65,1,31,31,0.269381677454775
65,1,32,32,-0.269381677454775
65,1,109,109,0.269381677454775
65,1,121,121,-0.53876335490955
65,1,122,122,-0.269381677454775
65,1,123,123,0.269381677454775
65,2,1,33,             -1
65,2,2,27,             -1
65,2,3,26,             -1
65,2,4,21,             -1
65,2,5,20,             -1
65,2,6,19,             -1
65,2,8,15,             -1
65,2,9,14,             -1
65,2,10,13,             -1
66,1,25,25,-0.404072516182162
66,1,39,39,0.53876335490955
66,1,40,40,0.404072516182162
66,1,41,41,-0.3591755699397
66,1,116,116,0.404072516182162
66,1,130,130,-0.53876335490955
66,1,131,131,-0.404072516182162
66,1,132,132,0.3591755699397
66,2,2,33,             -1
66,2,3,32,             -1
66,2,4,27,             -1
66,2,5,26,             -1
66,2,6,25,             -1
66,2,7,21,             -1
66,2,8,20,             -1
66,2,9,19,             -1
66,2,10,18,             -1
66,2,12,15,             -1
66,2,13,14,             -1
67,1,33,33,-0.53876335490955
67,1,49,49,0.53876335490955
67,1,50,50,0.53876335490955
67,1,51,51,-0.448969462424625
67,1,124,124,0.53876335490955
67,1,140,140,-0.53876335490955
67,1,141,141,-0.53876335490955
67,1,142,142,0.448969462424625
67,2,4,33,             -1
67,2,5,32,             -1
67,2,6,31,             -1
67,2,7,27,             -1
67,2,8,26,             -1
67,2,9,25,             -1
67,2,10,24,             -1
67,2,11,21,             -1
67,2,12,20,             -1
67,2,13,19,             -1
67,2,14,18,             -1
67,2,15,17,             -1
68,1,42,42,-0.673454193636937
68,1,60,60,0.53876335490955
68,1,61,61,0.673454193636937
68,1,62,62,-0.53876335490955
68,1,133,133,0.673454193636937
68,1,151,151,-0.53876335490955
68,1,152,152,-0.673454193636937
68,1,153,153,0.53876335490955
68,2,7,33,             -1
68,2,8,32,             -1
68,2,9,31,             -1
68,2,10,30,             -1
68,2,11,27,             -1
68,2,12,26,             -1
68,2,13,25,             -1
68,2,14,24,             -1
68,2,15,23,             -1
68,2,16,21,             -1
68,2,17,20,             -1
68,2,18,19,             -1
69,1,52,52,-0.808145032364324
69,1,72,72,0.53876335490955
69,1,73,73,0.808145032364324
69,1,74,74,-0.628557247394474
69,1,143,143,0.808145032364324
69,1,163,163,-0.53876335490955
69,1,164,164,-0.808145032364324
69,1,165,165,0.628557247394474
69,2,11,33,             -1
69,2,12,32,             -1
69,2,13,31,             -1
69,2,14,30,             -1
69,2,15,29,             -1
69,2,16,27,             -1
69,2,17,26,             -1
69,2,18,25,             -1
69,2,19,24,             -1
69,2,20,23,             -1
69,2,21,22,             -1
70,1,63,63,-0.942835871091712
70,1,85,85,0.53876335490955
70,1,86,86,0.942835871091712
70,1,87,87,-0.718351139879399
70,1,154,154,0.942835871091712
70,1,176,176,-0.53876335490955
70,1,177,177,-0.942835871091712
70,1,178,178,0.718351139879399
70,2,16,33,             -1
70,2,17,32,             -1
70,2,18,31,             -1
70,2,19,30,             -1
70,2,20,29,             -1
70,2,22,27,             -1
70,2,23,26,             -1
70,2,24,25,             -1
71,1,75,75,-1.0775267098191
71,1,166,166,1.0775267098191
71,2,22,33,             -1
71,2,23,32,             -1
71,2,24,31,             -1
71,2,25,30,             -1
71,2,26,29,             -1
72,1,88,88,-1.21221754854649
72,1,179,179,1.21221754854649
72,2,29,32,             -1
72,2,30,31,             -1
73,1,23,23,-0.0897938924849249
73,1,114,114,0.0897938924849249
73,2,1,28,             -1
73,2,3,21,             -1
73,2,6,15,             -1
73,2,10,10,             -1
74,1,17,17,-0.134690838727387
74,1,29,29,0.628557247394474
74,1,30,30,0.134690838727387
74,1,31,31,-0.17958778496985
74,1,108,108,0.134690838727387
74,1,120,120,-0.628557247394474
74,1,121,121,-0.134690838727387
74,1,122,122,0.17958778496985
74,2,1,34,             -1
74,2,2,28,             -1
74,2,3,27,             -1
74,2,5,21,             -1
74,2,6,20,             -1
74,2,9,15,             -1
74,2,10,14,             -1
75,1,24,24,-0.269381677454775
75,1,38,38,0.628557247394474
75,1,39,39,0.269381677454775
75,1,40,40,-0.269381677454775
75,1,115,115,0.269381677454775
75,1,129,129,-0.628557247394474
75,1,130,130,-0.269381677454775
75,1,131,131,0.269381677454775
75,2,2,34,             -1
75,2,3,33,             -1
75,2,4,28,             -1
75,2,5,27,             -1
75,2,6,26,             -1
75,2,8,21,             -1
75,2,9,20,             -1
75,2,10,19,             -1
75,2,13,15,             -1
75,2,14,14,             -1
76,1,32,32,-0.404072516182162
76,1,48,48,0.628557247394474
76,1,49,49,0.404072516182162
76,1,50,50,-0.3591755699397
76,1,123,123,0.404072516182162
76,1,139,139,-0.628557247394474
76,1,140,140,-0.404072516182162
76,1,141,141,0.3591755699397
76,2,4,34,             -1
76,2,5,33,             -1
76,2,6,32,             -1
76,2,7,28,             -1
76,2,8,27,             -1
76,2,9,26,             -1
76,2,10,25,             -1
76,2,12,21,             -1
76,2,13,20,             -1
76,2,14,19,             -1
76,2,15,18,             -1
77,1,41,41,-0.53876335490955
77,1,59,59,0.628557247394474
77,1,60,60,0.53876335490955
77,1,61,61,-0.448969462424625
77,1,132,132,0.53876335490955
77,1,150,150,-0.628557247394474
77,1,151,151,-0.53876335490955
77,1,152,152,0.448969462424625
77,2,7,34,             -1
77,2,8,33,             -1
77,2,9,32,             -1
77,2,10,31,             -1
77,2,11,28,             -1
77,2,12,27,             -1
77,2,13,26,             -1
77,2,14,25,             -1
77,2,15,24,             -1
77,2,17,21,             -1
77,2,18,20,             -1
77,2,19,19,             -1
78,1,51,51,-0.673454193636937
78,1,71,71,0.628557247394474
78,1,72,72,0.673454193636937
78,1,73,73,-0.53876335490955
78,1,142,142,0.673454193636937
78,1,162,162,-0.628557247394474
78,1,163,163,-0.673454193636937
78,1,164,164,0.53876335490955
78,2,11,34,             -1
78,2,12,33,             -1
78,2,13,32,             -1
78,2,14,31,             -1
78,2,15,30,             -1
78,2,16,28,             -1
78,2,17,27,             -1
78,2,18,26,             -1
78,2,19,25,             -1
78,2,20,24,             -1
78,2,21,23,             -1
79,1,62,62,-0.808145032364324
79,1,84,84,0.628557247394474
79,1,85,85,0.808145032364324
79,1,86,86,-0.628557247394474
79,1,153,153,0.808145032364324
79,1,175,175,-0.628557247394474
79,1,176,176,-0.808145032364324
79,1,177,177,0.628557247394474
79,2,16,34,             -1
79,2,17,33,             -1
79,2,18,32,             -1
79,2,19,31,             -1
79,2,20,30,             -1
79,2,21,29,             -1
79,2,22,28,             -1
79,2,23,27,             -1
79,2,24,26,             -1
79,2,25,25,             -1
80,1,74,74,-0.942835871091712
80,1,165,165,0.942835871091712
80,2,22,34,             -1
80,2,23,33,             -1
80,2,24,32,             -1
80,2,25,31,             -1
80,2,26,30,             -1
80,2,27,29,             -1
81,1,87,87,-1.0775267098191
81,1,178,178,1.0775267098191
81,2,29,33,             -1
81,2,30,32,             -1
81,2,31,31,             -1
82,1,30,30,-0.0897938924849249
82,1,121,121,0.0897938924849249
82,2,3,28,             -1
82,2,6,21,             -1
82,2,10,15,             -1
83,1,23,23,-0.134690838727387
83,1,37,37,0.718351139879399
83,1,38,38,0.134690838727387
83,1,39,39,-0.17958778496985
83,1,114,114,0.134690838727387
83,1,128,128,-0.718351139879399
83,1,129,129,-0.134690838727387
83,1,130,130,0.17958778496985
83,2,3,34,             -1
83,2,5,28,             -1
83,2,6,27,             -1
83,2,9,21,             -1
83,2,10,20,             -1
83,2,14,15,             -1
84,1,31,31,-0.269381677454775
84,1,47,47,0.718351139879399
84,1,48,48,0.269381677454775
84,1,49,49,-0.269381677454775
84,1,122,122,0.269381677454775
84,1,138,138,-0.718351139879399
84,1,139,139,-0.269381677454775
84,1,140,140,0.269381677454775
84,2,5,34,             -1
84,2,6,33,             -1
84,2,8,28,             -1
84,2,9,27,             -1
84,2,10,26,             -1
84,2,13,21,             -1
84,2,14,20,             -1
84,2,15,19,             -1
85,1,40,40,-0.404072516182162
85,1,58,58,0.718351139879399
85,1,59,59,0.404072516182162
85,1,60,60,-0.3591755699397
85,1,131,131,0.404072516182162
85,1,149,149,-0.718351139879399
85,1,150,150,-0.404072516182162
85,1,151,151,0.3591755699397
85,2,8,34,             -1
85,2,9,33,             -1
85,2,10,32,             -1
85,2,12,28,             -1
85,2,13,27,             -1
85,2,14,26,             -1
85,2,15,25,             -1
85,2,18,21,             -1
85,2,19,20,             -1
86,1,50,50,-0.53876335490955
86,1,70,70,0.718351139879399
86,1,71,71,0.53876335490955
86,1,72,72,-0.448969462424625
86,1,141,141,0.53876335490955
86,1,161,161,-0.718351139879399
86,1,162,162,-0.53876335490955
86,1,163,163,0.448969462424625
86,2,12,34,             -1
86,2,13,33,             -1
86,2,14,32,             -1
86,2,15,31,             -1
86,2,17,28,             -1
86,2,18,27,             -1
86,2,19,26,             -1
86,2,20,25,             -1
86,2,21,24,             -1
87,1,61,61,-0.673454193636937
87,1,83,83,0.718351139879399
87,1,84,84,0.673454193636937
87,1,85,85,-0.53876335490955
87,1,152,152,0.673454193636937
87,1,174,174,-0.718351139879399
87,1,175,175,-0.673454193636937
87,1,176,176,0.53876335490955
87,2,17,34,             -1
87,2,18,33,             -1
87,2,19,32,             -1
87,2,20,31,             -1
87,2,21,30,             -1
87,2,23,28,             -1
87,2,24,27,             -1
87,2,25,26,             -1
88,1,73,73,-0.808145032364324
88,1,164,164,0.808145032364324
88,2,23,34,             -1
88,2,24,33,             -1
88,2,25,32,             -1
88,2,26,31,             -1
88,2,27,30,             -1
88,2,28,29,             -1
89,1,86,86,-0.942835871091712
89,1,177,177,0.942835871091712
89,2,29,34,             -1
89,2,30,33,             -1
89,2,31,32,             -1
90,1,38,38,-0.0897938924849249
90,1,129,129,0.0897938924849249
90,2,6,28,             -1
90,2,10,21,             -1
90,2,15,15,             -1
91,1,30,30,-0.134690838727387
91,1,46,46,0.808145032364324
91,1,47,47,0.134690838727387
91,1,48,48,-0.17958778496985
91,1,121,121,0.134690838727387
91,1,137,137,-0.808145032364324
91,1,138,138,-0.134690838727387
91,1,139,139,0.17958778496985
91,2,6,34,             -1
91,2,9,28,             -1
91,2,10,27,             -1
91,2,14,21,             -1
91,2,15,20,             -1
92,1,39,39,-0.269381677454775
92,1,57,57,0.808145032364324
92,1,58,58,0.269381677454775
92,1,59,59,-0.269381677454775
92,1,130,130,0.269381677454775
92,1,148,148,-0.808145032364324
92,1,149,149,-0.269381677454775
92,1,150,150,0.269381677454775
92,2,9,34,             -1
92,2,10,33,             -1
92,2,13,28,             -1
92,2,14,27,             -1
92,2,15,26,             -1
92,2,19,21,             -1
92,2,20,20,             -1
93,1,49,49,-0.404072516182162
93,1,69,69,0.808145032364324
93,1,70,70,0.404072516182162
93,1,71,71,-0.3591755699397
93,1,140,140,0.404072516182162
93,1,160,160,-0.808145032364324
93,1,161,161,-0.404072516182162
93,1,162,162,0.3591755699397
93,2,13,34,             -1
93,2,14,33,             -1
93,2,15,32,             -1
93,2,18,28,             -1
93,2,19,27,             -1
93,2,20,26,             -1
93,2,21,25,             -1
94,1,60,60,-0.53876335490955
94,1,82,82,0.808145032364324
94,1,83,83,0.53876335490955
94,1,84,84,-0.448969462424625
94,1,151,151,0.53876335490955
94,1,173,173,-0.808145032364324
94,1,174,174,-0.53876335490955
94,1,175,175,0.448969462424625
94,2,18,34,             -1
94,2,19,33,             -1
94,2,20,32,             -1
94,2,21,31,             -1
94,2,24,28,             -1
94,2,25,27,             -1
94,2,26,26,             -1
95,1,72,72,-0.673454193636937
95,1,163,163,0.673454193636937
95,2,24,34,             -1
95,2,25,33,             -1
95,2,26,32,             -1
95,2,27,31,             -1
95,2,28,30,             -1
96,1,85,85,-0.808145032364324
96,1,176,176,0.808145032364324
96,2,30,34,             -1
96,2,31,33,             -1
96,2,32,32,             -1
97,1,47,47,-0.0897938924849249
97,1,138,138,0.0897938924849249
97,2,10,28,             -1
97,2,15,21,             -1
98,1,38,38,-0.134690838727387
98,1,56,56,0.897938924849249
98,1,57,57,0.134690838727387
98,1,58,58,-0.17958778496985
98,1,129,129,0.134690838727387
98,1,147,147,-0.897938924849249
98,1,148,148,-0.134690838727387
98,1,149,149,0.17958778496985
98,2,10,34,             -1
98,2,14,28,             -1
98,2,15,27,             -1
98,2,20,21,             -1
99,1,48,48,-0.269381677454775
99,1,68,68,0.897938924849249
99,1,69,69,0.269381677454775
99,1,70,70,-0.269381677454775
99,1,139,139,0.269381677454775
99,1,159,159,-0.897938924849249
99,1,160,160,-0.269381677454775
99,1,161,161,0.269381677454775
99,2,14,34,             -1
99,2,15,33,             -1
99,2,19,28,             -1
99,2,20,27,             -1
99,2,21,26,             -1
100,1,59,59,-0.404072516182162
100,1,81,81,0.897938924849249
100,1,82,82,0.404072516182162
100,1,83,83,-0.3591755699397
100,1,150,150,0.404072516182162
100,1,172,172,-0.897938924849249
100,1,173,173,-0.404072516182162
100,1,174,174,0.3591755699397
100,2,19,34,             -1
100,2,20,33,             -1
100,2,21,32,             -1
100,2,25,28,             -1
100,2,26,27,             -1
101,1,71,71,-0.53876335490955
101,1,162,162,0.53876335490955
101,2,25,34,             -1
101,2,26,33,             -1
101,2,27,32,             -1
101,2,28,31,             -1
102,1,84,84,-0.673454193636937
102,1,175,175,0.673454193636937
102,2,31,34,             -1
102,2,32,33,             -1
103,1,57,57,-0.0897938924849249
103,1,148,148,0.0897938924849249
103,2,15,28,             -1
103,2,21,21,             -1
104,1,47,47,-0.134690838727387
104,1,67,67,0.987732817334174
104,1,68,68,0.134690838727387
104,1,69,69,-0.17958778496985
104,1,138,138,0.134690838727387
104,1,158,158,-0.987732817334174
104,1,159,159,-0.134690838727387
104,1,160,160,0.17958778496985
104,2,15,34,             -1
104,2,20,28,             -1
104,2,21,27,             -1
105,1,58,58,-0.269381677454775
105,1,80,80,0.987732817334174
105,1,81,81,0.269381677454775
105,1,82,82,-0.269381677454775
105,1,149,149,0.269381677454775
105,1,171,171,-0.987732817334174
105,1,172,172,-0.269381677454775
105,1,173,173,0.269381677454775
105,2,20,34,             -1
105,2,21,33,             -1
105,2,26,28,             -1
105,2,27,27,             -1
106,1,70,70,-0.404072516182162
106,1,161,161,0.404072516182162
106,2,26,34,             -1
106,2,27,33,             -1
106,2,28,32,             -1
107,1,83,83,-0.53876335490955
107,1,174,174,0.53876335490955
107,2,32,34,             -1
107,2,33,33,             -1
108,1,68,68,-0.0897938924849249
108,1,159,159,0.0897938924849249
108,2,21,28,             -1
109,1,57,57,-0.134690838727387
109,1,79,79,1.0775267098191
109,1,80,80,0.134690838727387
109,1,81,81,-0.17958778496985
109,1,148,148,0.134690838727387
109,1,170,170,-1.0775267098191
109,1,171,171,-0.134690838727387
109,1,172,172,0.17958778496985
109,2,21,34,             -1
109,2,27,28,             -1
110,1,69,69,-0.269381677454775
110,1,160,160,0.269381677454775
110,2,27,34,             -1
110,2,28,33,             -1
111,1,82,82,-0.404072516182162
111,1,173,173,0.404072516182162
111,2,33,34,             -1
112,1,80,80,-0.0897938924849249
112,1,171,171,0.0897938924849249
112,2,28,28,             -1
113,1,68,68,-0.134690838727387
113,1,159,159,0.134690838727387
113,2,28,34,             -1
114,1,81,81,-0.269381677454775
114,1,172,172,0.269381677454775
114,2,34,34,             -1
115,1,80,80,-0.134690838727387
115,1,171,171,0.134690838727387
